N = 7;
Capacity = 4;
ItemsPerCustomer = [7, 7, 3, 2, 6, 2, 3];
maxItemsPerCustomer = 7;
binCapacity = 50;
SizesOfItems = [|
  39, 38, 37, 20, 17, 11, 10
| 40, 36, 24, 20, 20, 18, 15
| 30, 19, 14, 0, 0, 0, 0
| 50, 50, 0, 0, 0, 0, 0
| 37, 35, 34, 31, 20, 19, 0
| 25, 20, 0, 0, 0, 0, 0
| 30, 18, 15, 0, 0, 0, 0
|];
Distance = [|
  0, 3, 38, 8, 51, 53, 55, 49
| 3, 0, 36, 10, 53, 49, 54, 49
| 38, 36, 0, 46, 89, 41, 22, 29
| 8, 10, 46, 0, 44, 59, 62, 55
| 51, 53, 89, 44, 0, 91, 106, 97
| 53, 49, 41, 59, 91, 0, 60, 70
| 55, 54, 22, 62, 106, 60, 0, 17
| 49, 49, 29, 55, 97, 70, 17, 0
|];
